%leximin and utilitarian are the same
n_agents = 3;

Tables = {Table1, Table2};
wanted_days = [{}, {Mon, Wed}, {Thu, Fri}];
wanted_number_days = [{2}, {}, {3}];
wanted_breaks = [true, true, false];
desired_partners = [{}, {1,3}, {2}];